data/solutions/planning/wellformed/hard/weighting/wellformed_hard_instance21_gurobi.sol
Elapsed time: 7.28
Nodes explored: 2910
Nodes left: 2101
Relative gap: 0.004
Upper bound: 52736609.0
Lower bound: 52734624
C[0]=51551.0
C[1]=51551.0
C[2]=51551.0
C[3]=51551.0
C[4]=51551.0
C[5]=51550.0
C[6]=51549.0
C[7]=51549.0
C[8]=51544.0
C[9]=51541.0
y[0]=2
y[1]=8
y[2]=1
y[3]=0
y[4]=0
y[5]=5
y[6]=6
y[7]=1
y[8]=5
y[9]=1
y[10]=5
y[11]=4
y[12]=4
y[13]=0
y[14]=2
y[15]=4
y[16]=4
y[17]=1
y[18]=1
y[19]=7
y[20]=9
y[21]=1
y[22]=5
y[23]=6
y[24]=1
y[25]=3
y[26]=6
y[27]=1
y[28]=8
y[29]=7
y[30]=8
y[31]=0
y[32]=1
y[33]=2
y[34]=3
y[35]=7
y[36]=7
y[37]=2
y[38]=0
y[39]=0
y[40]=9
y[41]=7
y[42]=8
y[43]=9
y[44]=1
y[45]=8
y[46]=0
y[47]=6
y[48]=9
y[49]=9
y[50]=0
y[51]=6
y[52]=3
y[53]=6
y[54]=1
y[55]=6
y[56]=8
y[57]=7
y[58]=6
y[59]=2
y[60]=6
y[61]=6
y[62]=5
y[63]=2
y[64]=8
y[65]=2
y[66]=3
y[67]=7
y[68]=1
y[69]=3
y[70]=8
y[71]=0
y[72]=3
y[73]=3
y[74]=2
y[75]=5
y[76]=3
y[77]=9
y[78]=2
y[79]=5
y[80]=1
y[81]=2
y[82]=7
y[83]=8
y[84]=8
y[85]=9
y[86]=1
y[87]=3
y[88]=3
y[89]=1
y[90]=6
y[91]=7
y[92]=2
y[93]=3
y[94]=7
y[95]=6
y[96]=5
y[97]=1
y[98]=1
y[99]=8
y[100]=7
y[101]=5
y[102]=3
y[103]=1
y[104]=2
y[105]=3
y[106]=9
y[107]=9
y[108]=9
y[109]=7
y[110]=7
y[111]=7
y[112]=5
y[113]=1
y[114]=6
y[115]=0
y[116]=4
y[117]=1
y[118]=6
y[119]=4
y[120]=1
y[121]=3
y[122]=3
y[123]=1
y[124]=6
y[125]=7
y[126]=1
y[127]=3
y[128]=8
y[129]=4
y[130]=5
y[131]=1
y[132]=7
y[133]=4
y[134]=3
y[135]=8
y[136]=1
y[137]=0
y[138]=5
y[139]=8
y[140]=5
y[141]=2
y[142]=2
y[143]=6
y[144]=1
y[145]=4
y[146]=6
y[147]=8
y[148]=3
y[149]=2
y[150]=9
y[151]=4
y[152]=5
y[153]=5
y[154]=8
y[155]=5
y[156]=3
y[157]=8
y[158]=4
y[159]=0
y[160]=5
y[161]=4
y[162]=1
y[163]=2
y[164]=1
y[165]=5
y[166]=3
y[167]=2
y[168]=6
y[169]=8
y[170]=6
y[171]=8
y[172]=7
y[173]=1
y[174]=6
y[175]=5
y[176]=3
y[177]=9
y[178]=4
y[179]=6
y[180]=1
y[181]=4
y[182]=4
y[183]=6
y[184]=3
y[185]=9
y[186]=6
y[187]=6
y[188]=8
y[189]=1
y[190]=6
y[191]=7
y[192]=6
y[193]=4
y[194]=0
y[195]=3
y[196]=9
y[197]=3
y[198]=3
y[199]=3
y[200]=2
y[201]=9
y[202]=7
y[203]=6
y[204]=6
y[205]=6
y[206]=9
y[207]=2
y[208]=9
y[209]=8
y[210]=8
y[211]=8
y[212]=9
y[213]=7
y[214]=6
y[215]=7
y[216]=6
y[217]=6
y[218]=6
y[219]=4
y[220]=1
y[221]=1
y[222]=4
y[223]=6
y[224]=1
y[225]=4
y[226]=9
y[227]=6
y[228]=8
y[229]=6
y[230]=5
y[231]=6
y[232]=2
y[233]=2
y[234]=9
y[235]=4
y[236]=7
y[237]=5
y[238]=9
y[239]=9
y[240]=5
y[241]=5
y[242]=6
y[243]=6
y[244]=9
y[245]=5
y[246]=3
y[247]=1
y[248]=2
y[249]=8
y[250]=5
y[251]=9
y[252]=6
y[253]=1
y[254]=9
y[255]=7
y[256]=3
y[257]=7
y[258]=9
y[259]=5
y[260]=3
y[261]=8
y[262]=1
y[263]=4
y[264]=2
y[265]=1
y[266]=3
y[267]=2
y[268]=9
y[269]=7
y[270]=1
y[271]=1
y[272]=7
y[273]=7
y[274]=2
y[275]=4
y[276]=2
y[277]=8
y[278]=7
y[279]=8
y[280]=4
y[281]=3
y[282]=9
y[283]=1
y[284]=1
y[285]=9
y[286]=4
y[287]=1
y[288]=8
y[289]=8
y[290]=7
y[291]=7
y[292]=4
y[293]=6
y[294]=2
y[295]=7
y[296]=7
y[297]=1
y[298]=4
y[299]=6
y[300]=7
y[301]=5
y[302]=1
y[303]=0
y[304]=7
y[305]=8
y[306]=4
y[307]=6
y[308]=8
y[309]=8
y[310]=8
y[311]=5
y[312]=9
y[313]=7
y[314]=3
y[315]=2
y[316]=1
y[317]=5
y[318]=3
y[319]=7
y[320]=1
y[321]=2
y[322]=4
y[323]=0
y[324]=3
y[325]=3
y[326]=6
y[327]=7
y[328]=4
y[329]=5
y[330]=8
y[331]=6
y[332]=1
y[333]=2
y[334]=4
y[335]=2
y[336]=1
y[337]=8
y[338]=5
y[339]=1
y[340]=8
y[341]=3
y[342]=9
y[343]=5
y[344]=2
y[345]=1
y[346]=9
y[347]=9
y[348]=4
y[349]=6
y[350]=8
y[351]=3
y[352]=6
y[353]=8
y[354]=7
y[355]=1
y[356]=8
y[357]=8
y[358]=1
y[359]=1
y[360]=1
y[361]=8
y[362]=4
y[363]=1
y[364]=6
y[365]=7
y[366]=2
y[367]=1
y[368]=2
y[369]=7
y[370]=8
y[371]=4
y[372]=7
y[373]=4
y[374]=0
y[375]=6
y[376]=8
y[377]=3
y[378]=4
y[379]=0
y[380]=3
y[381]=1
y[382]=0
y[383]=0
y[384]=0
y[385]=7
y[386]=1
y[387]=0
y[388]=1
y[389]=2
y[390]=0
y[391]=0
y[392]=0
y[393]=0
y[394]=9
y[395]=5
y[396]=0
y[397]=2
y[398]=0
y[399]=1
y[400]=0
y[401]=0
y[402]=7
y[403]=0
y[404]=6
y[405]=0
y[406]=0
y[407]=0
y[408]=4
y[409]=7
y[410]=1
y[411]=8
y[412]=2
y[413]=4
y[414]=8
y[415]=2
y[416]=3
y[417]=9
y[418]=8
y[419]=1
y[420]=7
y[421]=0
y[422]=0
y[423]=3
y[424]=0
y[425]=0
y[426]=0
y[427]=0
y[428]=0
y[429]=0
y[430]=7
y[431]=2
y[432]=7
y[433]=0
y[434]=8
y[435]=0
y[436]=2
y[437]=9
y[438]=2
y[439]=8
y[440]=5
y[441]=6
y[442]=6
y[443]=2
y[444]=9
y[445]=4
y[446]=4
y[447]=3
y[448]=4
y[449]=5
y[450]=8
y[451]=9
y[452]=8
y[453]=4
y[454]=9
y[455]=7
y[456]=7
y[457]=3
y[458]=9
y[459]=9
y[460]=3
y[461]=0
y[462]=8
y[463]=7
y[464]=5
y[465]=2
y[466]=1
y[467]=6
y[468]=5
y[469]=6
y[470]=7
y[471]=8
y[472]=2
y[473]=2
y[474]=4
y[475]=4
y[476]=3
y[477]=2
y[478]=1
y[479]=9
y[480]=7
y[481]=6
y[482]=1
y[483]=5
y[484]=4
y[485]=3
y[486]=8
y[487]=9
y[488]=4
y[489]=6
y[490]=5
y[491]=1
y[492]=7
y[493]=2
y[494]=7
y[495]=4
y[496]=5
y[497]=5
y[498]=5
y[499]=9
